data/solutions/recovery/wellformed/moderate/flexible/wellformed_moderate_instance89/9.sol
Elapsed time: 40.73
Upper bound: 7239.0
Planning weighted value: 430802.0
C[0]=7239.0
C[1]=7236.0
C[2]=7235.0
C[3]=7229.0
C[4]=7219.0
C[5]=7205.0
y[0]=2
y[1]=4
y[2]=5
y[3]=1
y[4]=0
y[5]=4
y[6]=3
y[7]=1
y[8]=0
y[9]=1
y[10]=3
y[11]=0
y[12]=3
y[13]=0
y[14]=0
y[15]=2
y[16]=1
y[17]=0
y[18]=3
y[19]=4
y[20]=4
y[21]=1
y[22]=2
y[23]=2
y[24]=5
y[25]=5
y[26]=0
y[27]=4
y[28]=3
y[29]=0
y[30]=1
y[31]=5
y[32]=2
y[33]=4
y[34]=3
y[35]=4
y[36]=2
y[37]=2
y[38]=5
y[39]=2
y[40]=1
y[41]=5
