data/solutions/recovery/wellformed/moderate/flexible/wellformed_moderate_instance89/9.log

Log started (V12.6.3.0) Fri Apr 20 19:19:19 2018

New value for default parallel thread count: 1

Problem '/tmp/tmpfmD6CV.pyomo.lp' read.
Read time = 0.00 sec. (0.13 ticks)

Problem name         : /tmp/tmpfmD6CV.pyomo.lp
Objective sense      : Minimize
Variables            :     260  [Nneg: 1,  Binary: 252,  General Integer: 7]
Objective nonzeros   :       1
Linear constraints   :      97  [Less: 48,  Equal: 49]
  Nonzeros           :    8917
  RHS nonzeros       :      85

Variables            : Min LB: 0.000000         Max UB: 1.000000       
Objective nonzeros   : Min   : 1.000000         Max   : 1.000000       
Linear constraints   :
  Nonzeros           : Min   : 1.000000         Max   : 1980.000       
  RHS nonzeros       : Min   : 1.000000         Max   : 5.000000       
Tried aggregator 2 times.
MIP Presolve eliminated 42 rows and 6 columns.
Aggregator did 7 substitutions.
Reduced MIP has 48 rows, 247 columns, and 693 nonzeros.
Reduced MIP has 246 binaries, 1 generals, 0 SOSs, and 0 indicators.
Presolve time = 0.00 sec. (2.20 ticks)
Found incumbent of value 43363.000000 after 0.00 sec. (2.69 ticks)
Probing time = 0.00 sec. (0.26 ticks)
Cover probing fixed 0 vars, tightened 4 bounds.
Tried aggregator 1 time.
Reduced MIP has 48 rows, 247 columns, and 693 nonzeros.
Reduced MIP has 246 binaries, 1 generals, 0 SOSs, and 0 indicators.
Presolve time = 0.00 sec. (0.41 ticks)
Probing time = 0.00 sec. (0.18 ticks)
Clique table members: 41.
MIP emphasis: balance optimality and feasibility.
MIP search method: dynamic search.
Parallel mode: none, using 1 thread.
Root relaxation solution time = 0.00 sec. (0.18 ticks)

        Nodes                                         Cuts/
   Node  Left     Objective  IInf  Best Integer    Best Bound    ItCnt     Gap

*     0+    0                        43363.0000     1980.0000            95.43%
      0     0     7227.1667     8    43363.0000     7227.1667        7   83.33%
*     0+    0                         8001.0000     7227.1667             9.67%
      0     0     7228.0000    11     8001.0000      Fract: 5       26    9.66%
*     0+    0                         7429.0000     7228.0000             2.71%
      0     0     7228.0000    13     7429.0000      Cuts: 11       43    2.71%
      0     0     7228.0000    12     7429.0000       Cuts: 7       58    2.71%
*     0+    0                         7347.0000     7228.0000             1.62%
*     0+    0                         7337.0000     7228.0000             1.49%
      0     2     7228.0000     7     7337.0000     7228.0000       58    1.49%
Elapsed time = 0.02 sec. (14.46 ticks, tree = 0.01 MB, solutions = 5)
*   640+  459                         7317.0000     7228.0000             1.22%
*   643   456      integral     0     7303.0000     7228.0000     2257    1.03%
*  1514+  618                         7292.0000     7228.0000             0.88%
*  1554+  411                         7289.0000     7228.0000             0.84%
*  1654+  281                         7267.0000     7228.0000             0.54%
*  1654+  215                         7249.0000     7228.0000             0.29%
   1728   241     7228.0000     6     7249.0000     7228.0000     5398    0.29%
   1729   241     7228.0000     7     7249.0000     7228.0000     5400    0.29%
   1730   241     7228.0000     7     7249.0000     7228.0000     5401    0.29%
   1731   241     7228.0000     8     7249.0000     7228.0000     5403    0.29%
   1732   242     7228.0000    11     7249.0000     7228.0000     5407    0.29%
   1733   243     7228.0000    11     7249.0000     7228.0000     5408    0.29%
   1734   243     7228.0000    11     7249.0000     7228.0000     5410    0.29%
   1735   243     7228.0000    11     7249.0000     7228.0000     5411    0.29%
   1736   243     7228.0000     9     7249.0000     7228.0000     5413    0.29%
*  2354+  572                         7246.0000     7228.0000             0.25%
   2554   735     7229.0000    12     7246.0000     7228.0000     7501    0.25%
Elapsed time = 0.95 sec. (994.28 ticks, tree = 0.22 MB, solutions = 12)
   6435  2510     7228.0000    23     7246.0000     7228.0000    53137    0.25%
   6436  2509        cutoff           7246.0000     7228.0000    53234    0.25%
   6437  2510     7228.0000    17     7246.0000     7228.0000    53240    0.25%
   6438  2511     7228.0000    20     7246.0000     7228.0000    53251    0.25%
   6439  2512     7228.0000    19     7246.0000     7228.0000    53252    0.25%
   6440  2513     7228.0000    17     7246.0000     7228.0000    53254    0.25%
   6441  2514     7228.0000    23     7246.0000     7228.0000    53266    0.25%
   6442  2513        cutoff           7246.0000     7228.0000    53304    0.25%
   6443  2514     7228.0000    23     7246.0000     7228.0000    53308    0.25%
   6444  2515     7228.0000    19     7246.0000     7228.0000    53320    0.25%
Elapsed time = 1.74 sec. (1951.66 ticks, tree = 0.78 MB, solutions = 12)
   8942  2488        cutoff           7246.0000     7228.0000   103793    0.25%
   8943  2489     7232.9809    24     7246.0000     7228.0000   103873    0.25%
   8944  2488        cutoff           7246.0000     7228.0000   103892    0.25%
   8945  2487        cutoff           7246.0000     7228.0000   103905    0.25%
   8946  2486        cutoff           7246.0000     7228.0000   103937    0.25%
   8947  2485        cutoff           7246.0000     7228.0000   103960    0.25%
   8948  2484        cutoff           7246.0000     7228.0000   104006    0.25%
   8949  2483        cutoff           7246.0000     7228.0000   104042    0.25%
   8950  2482    infeasible           7246.0000     7228.0000   104042    0.25%
   8951  2481        cutoff           7246.0000     7228.0000   104059    0.25%
Elapsed time = 2.46 sec. (2909.20 ticks, tree = 0.78 MB, solutions = 12)
  11134  3012        cutoff           7246.0000     7228.0000   142811    0.25%
  11135  3011        cutoff           7246.0000     7228.0000   142831    0.25%
  11136  3012     7228.0000    17     7246.0000     7228.0000   142846    0.25%
  11137  3011     7244.1304    11     7246.0000     7228.0000   142856    0.25%
  11138  3012     7228.0000    15     7246.0000     7228.0000   142878    0.25%
  11139  3013     7228.0000    16     7246.0000     7228.0000   142905    0.25%
  11140  3014     7228.0000    15     7246.0000     7228.0000   142913    0.25%
  11141  3013        cutoff           7246.0000     7228.0000   142920    0.25%
  11142  3012        cutoff           7246.0000     7228.0000   142932    0.25%
  11143  3011        cutoff           7246.0000     7228.0000   142947    0.25%
Elapsed time = 3.38 sec. (3946.40 ticks, tree = 0.92 MB, solutions = 12)
  12866  3562     7228.0000    35     7246.0000     7228.0000   188137    0.25%
  12867  3563     7228.0000    27     7246.0000     7228.0000   188143    0.25%
  12868  3564     7228.0000    29     7246.0000     7228.0000   188182    0.25%
  12869  3565     7228.0000    36     7246.0000     7228.0000   188260    0.25%
  12870  3566     7228.0000    26     7246.0000     7228.0000   188292    0.25%
  12871  3567     7228.0000    39     7246.0000     7228.0000   188410    0.25%
  12872  3568     7228.0000    31     7246.0000     7228.0000   188423    0.25%
  12873  3569     7228.0000    27     7246.0000     7228.0000   188432    0.25%
  12874  3570     7229.8915    42     7246.0000     7228.0000   188529    0.25%
  12875  3571     7230.1493    38     7246.0000     7228.0000   188534    0.25%
Elapsed time = 4.08 sec. (4908.27 ticks, tree = 1.07 MB, solutions = 12)
  13941  3842     7238.7251    36     7246.0000     7228.0000   232362    0.25%
  13942  3843     7228.6008    43     7246.0000     7228.0000   232369    0.25%
  13943  3844     7228.6094    44     7246.0000     7228.0000   232371    0.25%
  13944  3843        cutoff           7246.0000     7228.0000   232415    0.25%
  13945  3844     7228.6200    41     7246.0000     7228.0000   232417    0.25%
  13946  3845     7229.5312    42     7246.0000     7228.0000   232442    0.25%
  13947  3844        cutoff           7246.0000     7228.0000   232471    0.25%
  13948  3845     7229.5482    42     7246.0000     7228.0000   232472    0.25%
  13949  3846     7229.6166    43     7246.0000     7228.0000   232475    0.25%
  13950  3847     7230.5906    41     7246.0000     7228.0000   232513    0.25%
Elapsed time = 4.73 sec. (5866.52 ticks, tree = 1.14 MB, solutions = 12)
  14944  4050     7229.0000    19     7246.0000     7228.0000   272335    0.25%
  14945  4051     7229.0000    13     7246.0000     7228.0000   272341    0.25%
  14946  4052     7229.0000    15     7246.0000     7228.0000   272351    0.25%
  14947  4053     7229.0000    16     7246.0000     7228.0000   272401    0.25%
  14948  4054     7229.0000    15     7246.0000     7228.0000   272404    0.25%
  14949  4053        cutoff           7246.0000     7228.0000   272434    0.25%
  14950  4054     7229.0000    16     7246.0000     7228.0000   272439    0.25%
  14951  4055     7229.0000    17     7246.0000     7228.0000   272444    0.25%
  14952  4056     7229.0000    15     7246.0000     7228.0000   272446    0.25%
  14953  4057     7229.0000    16     7246.0000     7228.0000   272450    0.25%
Elapsed time = 5.38 sec. (6822.39 ticks, tree = 1.55 MB, solutions = 12)
  15928  4358     7231.5285    30     7246.0000     7228.0000   311391    0.25%
  15929  4359     7231.5355    28     7246.0000     7228.0000   311393    0.25%
  15930  4360     7231.5492    26     7246.0000     7228.0000   311395    0.25%
  15931  4361     7232.5550    19     7246.0000     7228.0000   311402    0.25%
  15932  4361     7232.7042    21     7246.0000     7228.0000   311404    0.25%
  15933  4361     7232.7594    21     7246.0000     7228.0000   311405    0.25%
  15934  4361     7232.9409    21     7246.0000     7228.0000   311406    0.25%
  15935  4362     7233.5552    21     7246.0000     7228.0000   311409    0.25%
  15936  4363     7233.5843    21     7246.0000     7228.0000   311410    0.25%
  15937  4362        cutoff           7246.0000     7228.0000   311411    0.25%
Elapsed time = 6.02 sec. (7777.67 ticks, tree = 1.92 MB, solutions = 12)
  17678  5706     7229.0000    33     7246.0000     7228.0000   341447    0.25%
  17679  5707     7229.0000    30     7246.0000     7228.0000   341450    0.25%
  17680  5708     7229.0000    25     7246.0000     7228.0000   341463    0.25%
  17681  5708     7239.8344    22     7246.0000     7228.0000   341550    0.25%
  17682  5707        cutoff           7246.0000     7228.0000   341564    0.25%
  17683  5706        cutoff           7246.0000     7228.0000   341633    0.25%
  17684  5705        cutoff           7246.0000     7228.0000   341797    0.25%
  17685  5706     7236.5342    36     7246.0000     7228.0000   342010    0.25%
  17686  5707     7237.0317    36     7246.0000     7228.0000   342032    0.25%
  17687  5708     7237.0439    38     7246.0000     7228.0000   342035    0.25%
Elapsed time = 6.68 sec. (8751.25 ticks, tree = 3.59 MB, solutions = 12)
  18497  6165     7231.7258    41     7246.0000     7228.0000   370866    0.25%
  18498  6166     7235.0117    35     7246.0000     7228.0000   370951    0.25%
  18499  6167     7236.7111    31     7246.0000     7228.0000   370989    0.25%
  18500  6168     7239.0544    42     7246.0000     7228.0000   371045    0.25%
  18501  6167        cutoff           7246.0000     7228.0000   371046    0.25%
  18502  6166        cutoff           7246.0000     7228.0000   371050    0.25%
  18503  6165        cutoff           7246.0000     7228.0000   371215    0.25%
  18504  6164        cutoff           7246.0000     7228.0000   371338    0.25%
  18505  6163        cutoff           7246.0000     7228.0000   371428    0.25%
  20736  6648        cutoff           7246.0000     7228.0000   466715    0.25%
Elapsed time = 9.19 sec. (12566.42 ticks, tree = 4.04 MB, solutions = 12)
  23923  8000     7228.0000    39     7246.0000     7228.0000   584489    0.25%
  23924  8001     7228.0000    34     7246.0000     7228.0000   584708    0.25%
  23925  8002     7228.0000    35     7246.0000     7228.0000   584737    0.25%
  23926  8003     7228.0000    37     7246.0000     7228.0000   584872    0.25%
  23927  8004     7228.0000    39     7246.0000     7228.0000   584951    0.25%
  23928  8005     7228.0000    40     7246.0000     7228.0000   585146    0.25%
  23929  8006     7228.0000    35     7246.0000     7228.0000   585208    0.25%
  23930  8007     7228.4419    35     7246.0000     7228.0000   585254    0.25%
  23931  8008     7228.6256    35     7246.0000     7228.0000   585271    0.25%
  23932  8009     7228.6473    35     7246.0000     7228.0000   585277    0.25%
Elapsed time = 11.77 sec. (16413.46 ticks, tree = 4.93 MB, solutions = 12)
  27028  9252     7232.0493    39     7246.0000     7228.0000   699064    0.25%
  27029  9253     7232.2076    40     7246.0000     7228.0000   699081    0.25%
  27030  9254     7232.2371    41     7246.0000     7228.0000   699083    0.25%
  27031  9255     7232.8697    41     7246.0000     7228.0000   699098    0.25%
  27032  9256     7233.0918    44     7246.0000     7228.0000   699112    0.25%
  27033  9257     7233.9142    41     7246.0000     7228.0000   699125    0.25%
  27034  9257     7240.5643    27     7246.0000     7228.0000   699162    0.25%
  27035  9256        cutoff           7246.0000     7228.0000   699165    0.25%
  27036  9256     7233.5695    30     7246.0000     7228.0000   699265    0.25%
  27037  9257     7233.5958    28     7246.0000     7228.0000   699268    0.25%
Elapsed time = 14.33 sec. (20234.54 ticks, tree = 6.09 MB, solutions = 12)
  30018 10485        cutoff           7246.0000     7228.0000   823158    0.25%
  30019 10486     7230.2523    45     7246.0000     7228.0000   823159    0.25%
  30020 10487     7230.2540    44     7246.0000     7228.0000   823164    0.25%
  30021 10488     7231.8601    37     7246.0000     7228.0000   823198    0.25%
  30022 10489     7234.4841    39     7246.0000     7228.0000   823276    0.25%
  30023 10490     7234.6466    30     7246.0000     7228.0000   823296    0.25%
  30024 10489        cutoff           7246.0000     7228.0000   823321    0.25%
  30025 10490     7234.7511    31     7246.0000     7228.0000   823335    0.25%
  30026 10491     7234.8609    34     7246.0000     7228.0000   823343    0.25%
  30027 10492     7235.1089    33     7246.0000     7228.0000   823349    0.25%
Elapsed time = 16.84 sec. (24055.43 ticks, tree = 7.24 MB, solutions = 12)
  33168 11940     7241.6693    31     7246.0000     7228.0000   944730    0.25%
  33169 11940     7244.8300    30     7246.0000     7228.0000   944805    0.25%
  33170 11939        cutoff           7246.0000     7228.0000   944806    0.25%
  33171 11938        cutoff           7246.0000     7228.0000   944849    0.25%
  33172 11939     7237.4467    35     7246.0000     7228.0000   945094    0.25%
  33173 11940     7237.4570    35     7246.0000     7228.0000   945096    0.25%
  33174 11941     7238.0277    36     7246.0000     7228.0000   945100    0.25%
  33175 11942     7238.9810    35     7246.0000     7228.0000   945112    0.25%
  33176 11941        cutoff           7246.0000     7228.0000   945114    0.25%
  33177 11940        cutoff           7246.0000     7228.0000   945116    0.25%
Elapsed time = 19.40 sec. (27888.20 ticks, tree = 8.70 MB, solutions = 12)
  36354 13514     7229.5689    42     7246.0000     7228.0000  1059638    0.25%
  36355 13515     7229.6447    44     7246.0000     7228.0000  1059644    0.25%
  36356 13516     7229.6449    41     7246.0000     7228.0000  1059645    0.25%
  36357 13515        cutoff           7246.0000     7228.0000  1059683    0.25%
  36358 13516     7231.5952    38     7246.0000     7228.0000  1059744    0.25%
  36359 13517     7231.5978    36     7246.0000     7228.0000  1059745    0.25%
  36360 13518     7231.6033    34     7246.0000     7228.0000  1059746    0.25%
  36361 13519     7231.6033    34     7246.0000     7228.0000  1059748    0.25%
  36362 13520     7231.6033    35     7246.0000     7228.0000  1059750    0.25%
  36363 13521     7231.6357    36     7246.0000     7228.0000  1059753    0.25%
Elapsed time = 21.92 sec. (31709.05 ticks, tree = 10.80 MB, solutions = 12)
  39704 15259     7229.1406    39     7246.0000     7228.0000  1172737    0.25%
  39705 15260     7229.2938    36     7246.0000     7228.0000  1172743    0.25%
  39706 15259        cutoff           7246.0000     7228.0000  1172786    0.25%
  39707 15260     7229.7061    45     7246.0000     7228.0000  1172804    0.25%
  39708 15259        cutoff           7246.0000     7228.0000  1172839    0.25%
  39709 15260     7229.7291    41     7246.0000     7228.0000  1172849    0.25%
  39710 15261     7229.7650    38     7246.0000     7228.0000  1172855    0.25%
  39711 15262     7230.3115    36     7246.0000     7228.0000  1172877    0.25%
  39712 15263     7230.5916    33     7246.0000     7228.0000  1172883    0.25%
  39713 15263     7231.6524    43     7246.0000     7228.0000  1172895    0.25%
Elapsed time = 24.46 sec. (35531.97 ticks, tree = 13.33 MB, solutions = 12)
  44756  1834        cutoff           7246.0000     7228.0247  1278409    0.25%
  44757  1833        cutoff           7246.0000     7228.0247  1278483    0.25%
  44758  1832    infeasible           7246.0000     7228.0247  1278483    0.25%
  44759  1833     7238.2165    28     7246.0000     7228.0247  1278682    0.25%
  44760  1832        cutoff           7246.0000     7228.0247  1278689    0.25%
  44761  1833     7240.6091    28     7246.0000     7228.0247  1278700    0.25%
  44762  1832        cutoff           7246.0000     7228.0247  1278706    0.25%
  44763  1831        cutoff           7246.0000     7228.0247  1278709    0.25%
  44764  1832     7232.7514    29     7246.0000     7228.0247  1278782    0.25%
  44765  1833     7232.8047    34     7246.0000     7228.0247  1278790    0.25%
Elapsed time = 27.38 sec. (39357.24 ticks, tree = 1.44 MB, solutions = 12)
* 45186  1879      integral     0     7243.0000     7228.0247  1293671    0.21%
  49402  4415     7241.7500    16     7243.0000     7228.0247  1404273    0.21%
  49403  4414        cutoff           7243.0000     7228.0247  1404323    0.21%
  49404  4415     7241.7500    18     7243.0000     7228.0247  1404328    0.21%
  49405  4414        cutoff           7243.0000     7228.0247  1404355    0.21%
  49406  4415     7241.7500    20     7243.0000     7228.0247  1404373    0.21%
  49407  4416     7241.7500    18     7243.0000     7228.0247  1404378    0.21%
  49408  4417     7241.7500    19     7243.0000     7228.0247  1404383    0.21%
  49409  4418     7241.7500    19     7243.0000     7228.0247  1404385    0.21%
  49410  4417        cutoff           7243.0000     7228.0247  1404432    0.21%
  49411  4418     7241.7500    19     7243.0000     7228.0247  1404434    0.21%
Elapsed time = 29.96 sec. (43176.61 ticks, tree = 4.48 MB, solutions = 13)
* 50752+ 4457                         7239.0000     7228.0247             0.15%
  52830  5354     7231.7937    41     7239.0000     7228.0247  1519314    0.15%
  52831  5353        cutoff           7239.0000     7228.0247  1519370    0.15%
  52832  5354     7236.7266    38     7239.0000     7228.0247  1519419    0.15%
  52833  5353        cutoff           7239.0000     7228.0247  1519426    0.15%
  52834  5352        cutoff           7239.0000     7228.0247  1519429    0.15%
  52835  5351    infeasible           7239.0000     7228.0247  1519429    0.15%
  52836  5350        cutoff           7239.0000     7228.0247  1519468    0.15%
  52837  5349        cutoff           7239.0000     7228.0247  1519542    0.15%
  52838  5350     7228.0000    41     7239.0000     7228.0247  1519691    0.15%
  52839  5351     7228.0000    35     7239.0000     7228.0247  1519697    0.15%
Elapsed time = 32.50 sec. (47006.01 ticks, tree = 6.08 MB, solutions = 14)
  55863  6588     7234.3270    50     7239.0000     7228.0247  1631224    0.15%
  55864  6589     7234.9980    46     7239.0000     7228.0247  1631243    0.15%
  55865  6590     7235.1216    43     7239.0000     7228.0247  1631259    0.15%
  55866  6589        cutoff           7239.0000     7228.0247  1631263    0.15%
  55867  6590     7235.6955    43     7239.0000     7228.0247  1631273    0.15%
  55868  6590     7237.1368    43     7239.0000     7228.0247  1631295    0.15%
  55869  6589        cutoff           7239.0000     7228.0247  1631305    0.15%
  55870  6588        cutoff           7239.0000     7228.0247  1631465    0.15%
  55871  6589     7228.4390    47     7239.0000     7228.0247  1631582    0.15%
  55872  6590     7228.4439    45     7239.0000     7228.0247  1631583    0.15%
Elapsed time = 35.01 sec. (50836.42 ticks, tree = 8.14 MB, solutions = 14)
  59852  5977     7230.3554    42     7239.0000     7230.2412  1732484    0.12%
  59853  5978     7230.3837    41     7239.0000     7230.2412  1732506    0.12%
  59854  5979     7230.4888    41     7239.0000     7230.2412  1732514    0.12%
  59855  5980     7230.6014    39     7239.0000     7230.2412  1732529    0.12%
  59856  5981     7230.6042    39     7239.0000     7230.2412  1732535    0.12%
  59857  5982     7230.6099    38     7239.0000     7230.2412  1732538    0.12%
  59858  5983     7230.6102    40     7239.0000     7230.2412  1732539    0.12%
  59859  5984     7230.6241    41     7239.0000     7230.2412  1732545    0.12%
  59860  5985     7230.6253    41     7239.0000     7230.2412  1732546    0.12%
  59861  5986     7230.7048    38     7239.0000     7230.2412  1732555    0.12%
Elapsed time = 37.59 sec. (54654.64 ticks, tree = 7.52 MB, solutions = 14)
  66605  1878        cutoff           7239.0000     7235.0960  1868236    0.05%
  66606  1877        cutoff           7239.0000     7235.0989  1868243    0.05%
  66607  1876        cutoff           7239.0000     7235.0996  1868248    0.05%
  66608  1875        cutoff           7239.0000     7235.1002  1868249    0.05%
  66609  1874        cutoff           7239.0000     7235.1029  1868255    0.05%
  66610  1873        cutoff           7239.0000     7235.1049  1868257    0.05%
  66611  1872        cutoff           7239.0000     7235.1050  1868268    0.05%
  66612  1871        cutoff           7239.0000     7235.1055  1868279    0.05%
  66613  1870    infeasible           7239.0000     7235.1072  1868279    0.05%
  66614  1869        cutoff           7239.0000     7235.1076  1868280    0.05%
Elapsed time = 40.27 sec. (58471.62 ticks, tree = 2.23 MB, solutions = 14)

Cover cuts applied:  173
Mixed integer rounding cuts applied:  20
Gomory fractional cuts applied:  2

Root node processing (before b&c):
  Real time             =    0.02 sec. (14.47 ticks)
Sequential b&c:
  Real time             =   40.69 sec. (59104.90 ticks)
                          ------------
Total (root+branch&cut) =   40.71 sec. (59119.36 ticks)

Solution pool: 14 solutions saved.

MIP - Integer optimal solution:  Objective =  7.2390000000e+03
Solution time =   40.71 sec.  Iterations = 1885355  Nodes = 68597
Deterministic time = 59119.36 ticks  (1452.32 ticks/sec)


Incumbent solution written to file '/tmp/tmpXPJQII.cplex.sol'.
